p cnf 24 1032
-1 -5 2 0
-1 -5 6 0
-1 -9 3 0
-1 -9 10 0
-1 -5 2 0
-1 -5 6 0
-1 -9 3 0
-1 -9 10 0
-5 -9 7 0
-5 -9 11 0
-5 -9 7 0
-5 -9 11 0
-1 -13 2 0
-1 -13 14 0
-1 -17 3 0
-1 -17 18 0
-5 -13 6 0
-5 -13 14 0
-9 -17 10 0
-9 -17 18 0
-5 -21 7 0
-5 -21 22 0
-9 -21 11 0
-9 -21 22 0
-1 -13 2 0
-1 -13 14 0
-1 -17 3 0
-1 -17 18 0
-5 -13 6 0
-5 -13 14 0
-9 -17 10 0
-9 -17 18 0
-5 -21 7 0
-5 -21 22 0
-9 -21 11 0
-9 -21 22 0
-13 -17 15 0
-13 -17 19 0
-13 -17 15 0
-13 -17 19 0
-13 -21 15 0
-13 -21 23 0
-17 -21 19 0
-17 -21 23 0
-13 -21 15 0
-13 -21 23 0
-17 -21 19 0
-17 -21 23 0
-1 -6 2 0
-1 -6 5 0
-1 -10 3 0
-1 -10 9 0
-2 -5 1 0
-2 -5 6 0
-3 -9 1 0
-3 -9 10 0
-5 -11 7 0
-5 -11 9 0
-7 -9 5 0
-7 -9 11 0
-1 -14 2 0
-1 -14 13 0
-1 -18 3 0
-1 -18 17 0
-5 -14 6 0
-5 -14 13 0
-9 -18 10 0
-9 -18 17 0
-5 -22 7 0
-5 -22 21 0
-9 -22 11 0
-9 -22 21 0
-2 -13 1 0
-2 -13 14 0
-3 -17 1 0
-3 -17 18 0
-6 -13 5 0
-6 -13 14 0
-10 -17 9 0
-10 -17 18 0
-7 -21 5 0
-7 -21 22 0
-11 -21 9 0
-11 -21 22 0
-13 -19 15 0
-13 -19 17 0
-15 -17 13 0
-15 -17 19 0
-13 -23 15 0
-13 -23 21 0
-17 -23 19 0
-17 -23 21 0
-15 -21 13 0
-15 -21 23 0
-19 -21 17 0
-19 -21 23 0
-2 -11 4 0
-2 -11 12 0
-3 -7 4 0
-3 -7 8 0
-6 -10 8 0
-6 -10 12 0
-6 -10 8 0
-6 -10 12 0
-3 -7 4 0
-3 -7 8 0
-2 -11 4 0
-2 -11 12 0
-2 -19 4 0
-2 -19 20 0
-3 -15 4 0
-3 -15 16 0
-6 -23 8 0
-6 -23 24 0
-10 -23 12 0
-10 -23 24 0
-7 -15 8 0
-7 -15 16 0
-11 -19 12 0
-11 -19 20 0
-14 -18 16 0
-14 -18 20 0
-14 -18 16 0
-14 -18 20 0
-14 -22 16 0
-14 -22 24 0
-18 -22 20 0
-18 -22 24 0
-14 -22 16 0
-14 -22 24 0
-18 -22 20 0
-18 -22 24 0
-3 -15 4 0
-3 -15 16 0
-2 -19 4 0
-2 -19 20 0
-7 -15 8 0
-7 -15 16 0
-11 -19 12 0
-11 -19 20 0
-6 -23 8 0
-6 -23 24 0
-10 -23 12 0
-10 -23 24 0
-2 -12 4 0
-2 -12 11 0
-3 -8 4 0
-3 -8 7 0
-6 -12 8 0
-6 -12 10 0
-8 -10 6 0
-8 -10 12 0
-4 -7 3 0
-4 -7 8 0
-4 -11 2 0
-4 -11 12 0
-2 -20 4 0
-2 -20 19 0
-3 -16 4 0
-3 -16 15 0
-6 -24 8 0
-6 -24 23 0
-10 -24 12 0
-10 -24 23 0
-7 -16 8 0
-7 -16 15 0
-11 -20 12 0
-11 -20 19 0
-14 -20 16 0
-14 -20 18 0
-16 -18 14 0
-16 -18 20 0
-14 -24 16 0
-14 -24 22 0
-18 -24 20 0
-18 -24 22 0
-16 -22 14 0
-16 -22 24 0
-20 -22 18 0
-20 -22 24 0
-4 -15 3 0
-4 -15 16 0
-4 -19 2 0
-4 -19 20 0
-8 -15 7 0
-8 -15 16 0
-12 -19 11 0
-12 -19 20 0
-8 -23 6 0
-8 -23 24 0
-12 -23 10 0
-12 -23 24 0
-4 -6 -9 -14 8 0
-4 -6 -9 -14 10 0
-4 -6 -9 -14 12 0
-4 -5 -10 -18 6 0
-4 -5 -10 -18 8 0
-4 -5 -10 -18 12 0
-2 -8 -9 -14 4 0
-2 -8 -9 -14 11 0
-2 -8 -9 -14 12 0
-3 -5 -12 -18 4 0
-3 -5 -12 -18 7 0
-3 -5 -12 -18 8 0
-1 -8 -11 -22 2 0
-1 -8 -11 -22 4 0
-1 -8 -11 -22 12 0
-1 -7 -12 -22 3 0
-1 -7 -12 -22 4 0
-1 -7 -12 -22 8 0
-4 -6 -14 -17 16 0
-4 -6 -14 -17 18 0
-4 -6 -14 -17 20 0
-4 -10 -13 -18 14 0
-4 -10 -13 -18 16 0
-4 -10 -13 -18 20 0
-2 -8 -14 -21 16 0
-2 -8 -14 -21 22 0
-2 -8 -14 -21 24 0
-3 -12 -18 -21 20 0
-3 -12 -18 -21 22 0
-3 -12 -18 -21 24 0
-8 -11 -13 -22 14 0
-8 -11 -13 -22 16 0
-8 -11 -13 -22 24 0
-7 -12 -17 -22 18 0
-7 -12 -17 -22 20 0
-7 -12 -17 -22 24 0
-2 -6 -16 -17 4 0
-2 -6 -16 -17 19 0
-2 -6 -16 -17 20 0
-3 -10 -13 -20 4 0
-3 -10 -13 -20 15 0
-3 -10 -13 -20 16 0
-2 -6 -16 -21 8 0
-2 -6 -16 -21 23 0
-2 -6 -16 -21 24 0
-3 -10 -20 -21 12 0
-3 -10 -20 -21 23 0
-3 -10 -20 -21 24 0
-7 -11 -13 -24 8 0
-7 -11 -13 -24 15 0
-7 -11 -13 -24 16 0
-7 -11 -17 -24 12 0
-7 -11 -17 -24 19 0
-7 -11 -17 -24 20 0
-1 -16 -19 -23 2 0
-1 -16 -19 -23 4 0
-1 -16 -19 -23 20 0
-1 -15 -20 -23 3 0
-1 -15 -20 -23 4 0
-1 -15 -20 -23 16 0
-5 -16 -19 -23 6 0
-5 -16 -19 -23 8 0
-5 -16 -19 -23 24 0
-9 -15 -20 -23 10 0
-9 -15 -20 -23 12 0
-9 -15 -20 -23 24 0
-5 -15 -19 -24 7 0
-5 -15 -19 -24 8 0
-5 -15 -19 -24 16 0
-9 -15 -19 -24 11 0
-9 -15 -19 -24 12 0
-9 -15 -19 -24 20 0
-2 -6 -9 -14 4 0
-2 -6 -9 -14 8 0
-2 -6 -9 -14 10 0
-2 -6 -9 -14 11 0
-2 -6 -9 -14 12 0
-3 -5 -10 -18 4 0
-3 -5 -10 -18 6 0
-3 -5 -10 -18 7 0
-3 -5 -10 -18 8 0
-3 -5 -10 -18 12 0
-2 -6 -9 -14 4 0
-2 -6 -9 -14 8 0
-2 -6 -9 -14 10 0
-2 -6 -9 -14 11 0
-2 -6 -9 -14 12 0
-3 -5 -10 -18 4 0
-3 -5 -10 -18 6 0
-3 -5 -10 -18 7 0
-3 -5 -10 -18 8 0
-3 -5 -10 -18 12 0
-1 -7 -11 -22 2 0
-1 -7 -11 -22 3 0
-1 -7 -11 -22 4 0
-1 -7 -11 -22 8 0
-1 -7 -11 -22 12 0
-1 -7 -11 -22 2 0
-1 -7 -11 -22 3 0
-1 -7 -11 -22 4 0
-1 -7 -11 -22 8 0
-1 -7 -11 -22 12 0
-2 -6 -14 -17 4 0
-2 -6 -14 -17 16 0
-2 -6 -14 -17 18 0
-2 -6 -14 -17 19 0
-2 -6 -14 -17 20 0
-3 -10 -13 -18 4 0
-3 -10 -13 -18 14 0
-3 -10 -13 -18 15 0
-3 -10 -13 -18 16 0
-3 -10 -13 -18 20 0
-2 -6 -14 -21 8 0
-2 -6 -14 -21 16 0
-2 -6 -14 -21 22 0
-2 -6 -14 -21 23 0
-2 -6 -14 -21 24 0
-3 -10 -18 -21 12 0
-3 -10 -18 -21 20 0
-3 -10 -18 -21 22 0
-3 -10 -18 -21 23 0
-3 -10 -18 -21 24 0
-7 -11 -13 -22 8 0
-7 -11 -13 -22 14 0
-7 -11 -13 -22 15 0
-7 -11 -13 -22 16 0
-7 -11 -13 -22 24 0
-7 -11 -17 -22 12 0
-7 -11 -17 -22 18 0
-7 -11 -17 -22 19 0
-7 -11 -17 -22 20 0
-7 -11 -17 -22 24 0
-2 -6 -14 -17 4 0
-2 -6 -14 -17 16 0
-2 -6 -14 -17 18 0
-2 -6 -14 -17 19 0
-2 -6 -14 -17 20 0
-3 -10 -13 -18 4 0
-3 -10 -13 -18 14 0
-3 -10 -13 -18 15 0
-3 -10 -13 -18 16 0
-3 -10 -13 -18 20 0
-2 -6 -14 -21 8 0
-2 -6 -14 -21 16 0
-2 -6 -14 -21 22 0
-2 -6 -14 -21 23 0
-2 -6 -14 -21 24 0
-3 -10 -18 -21 12 0
-3 -10 -18 -21 20 0
-3 -10 -18 -21 22 0
-3 -10 -18 -21 23 0
-3 -10 -18 -21 24 0
-7 -11 -13 -22 8 0
-7 -11 -13 -22 14 0
-7 -11 -13 -22 15 0
-7 -11 -13 -22 16 0
-7 -11 -13 -22 24 0
-7 -11 -17 -22 12 0
-7 -11 -17 -22 18 0
-7 -11 -17 -22 19 0
-7 -11 -17 -22 20 0
-7 -11 -17 -22 24 0
-1 -15 -19 -23 2 0
-1 -15 -19 -23 3 0
-1 -15 -19 -23 4 0
-1 -15 -19 -23 16 0
-1 -15 -19 -23 20 0
-1 -15 -19 -23 2 0
-1 -15 -19 -23 3 0
-1 -15 -19 -23 4 0
-1 -15 -19 -23 16 0
-1 -15 -19 -23 20 0
-5 -15 -19 -23 6 0
-5 -15 -19 -23 7 0
-5 -15 -19 -23 8 0
-5 -15 -19 -23 16 0
-5 -15 -19 -23 24 0
-9 -15 -19 -23 10 0
-9 -15 -19 -23 11 0
-9 -15 -19 -23 12 0
-9 -15 -19 -23 20 0
-9 -15 -19 -23 24 0
-5 -15 -19 -23 6 0
-5 -15 -19 -23 7 0
-5 -15 -19 -23 8 0
-5 -15 -19 -23 16 0
-5 -15 -19 -23 24 0
-9 -15 -19 -23 10 0
-9 -15 -19 -23 11 0
-9 -15 -19 -23 12 0
-9 -15 -19 -23 20 0
-9 -15 -19 -23 24 0
-2 -7 -10 -14 3 0
-2 -7 -10 -14 4 0
-2 -7 -10 -14 6 0
-2 -7 -10 -14 8 0
-2 -7 -10 -14 11 0
-2 -7 -10 -14 12 0
-3 -6 -11 -18 2 0
-3 -6 -11 -18 4 0
-3 -6 -11 -18 7 0
-3 -6 -11 -18 8 0
-3 -6 -11 -18 10 0
-3 -6 -11 -18 12 0
-3 -6 -11 -14 2 0
-3 -6 -11 -14 4 0
-3 -6 -11 -14 7 0
-3 -6 -11 -14 8 0
-3 -6 -11 -14 10 0
-3 -6 -11 -14 12 0
-2 -7 -10 -18 3 0
-2 -7 -10 -18 4 0
-2 -7 -10 -18 6 0
-2 -7 -10 -18 8 0
-2 -7 -10 -18 11 0
-2 -7 -10 -18 12 0
-2 -7 -10 -22 3 0
-2 -7 -10 -22 4 0
-2 -7 -10 -22 6 0
-2 -7 -10 -22 8 0
-2 -7 -10 -22 11 0
-2 -7 -10 -22 12 0
-3 -6 -11 -22 2 0
-3 -6 -11 -22 4 0
-3 -6 -11 -22 7 0
-3 -6 -11 -22 8 0
-3 -6 -11 -22 10 0
-3 -6 -11 -22 12 0
-2 -6 -15 -18 3 0
-2 -6 -15 -18 4 0
-2 -6 -15 -18 14 0
-2 -6 -15 -18 16 0
-2 -6 -15 -18 19 0
-2 -6 -15 -18 20 0
-3 -10 -14 -19 2 0
-3 -10 -14 -19 4 0
-3 -10 -14 -19 15 0
-3 -10 -14 -19 16 0
-3 -10 -14 -19 18 0
-3 -10 -14 -19 20 0
-2 -6 -15 -22 7 0
-2 -6 -15 -22 8 0
-2 -6 -15 -22 14 0
-2 -6 -15 -22 16 0
-2 -6 -15 -22 23 0
-2 -6 -15 -22 24 0
-3 -10 -19 -22 11 0
-3 -10 -19 -22 12 0
-3 -10 -19 -22 18 0
-3 -10 -19 -22 20 0
-3 -10 -19 -22 23 0
-3 -10 -19 -22 24 0
-7 -11 -14 -23 6 0
-7 -11 -14 -23 8 0
-7 -11 -14 -23 15 0
-7 -11 -14 -23 16 0
-7 -11 -14 -23 22 0
-7 -11 -14 -23 24 0
-7 -11 -18 -23 10 0
-7 -11 -18 -23 12 0
-7 -11 -18 -23 19 0
-7 -11 -18 -23 20 0
-7 -11 -18 -23 22 0
-7 -11 -18 -23 24 0
-3 -6 -14 -19 2 0
-3 -6 -14 -19 4 0
-3 -6 -14 -19 15 0
-3 -6 -14 -19 16 0
-3 -6 -14 -19 18 0
-3 -6 -14 -19 20 0
-2 -10 -15 -18 3 0
-2 -10 -15 -18 4 0
-2 -10 -15 -18 14 0
-2 -10 -15 -18 16 0
-2 -10 -15 -18 19 0
-2 -10 -15 -18 20 0
-2 -7 -14 -23 6 0
-2 -7 -14 -23 8 0
-2 -7 -14 -23 15 0
-2 -7 -14 -23 16 0
-2 -7 -14 -23 22 0
-2 -7 -14 -23 24 0
-3 -11 -18 -23 10 0
-3 -11 -18 -23 12 0
-3 -11 -18 -23 19 0
-3 -11 -18 -23 20 0
-3 -11 -18 -23 22 0
-3 -11 -18 -23 24 0
-6 -11 -15 -22 7 0
-6 -11 -15 -22 8 0
-6 -11 -15 -22 14 0
-6 -11 -15 -22 16 0
-6 -11 -15 -22 23 0
-6 -11 -15 -22 24 0
-7 -10 -19 -22 11 0
-7 -10 -19 -22 12 0
-7 -10 -19 -22 18 0
-7 -10 -19 -22 20 0
-7 -10 -19 -22 23 0
-7 -10 -19 -22 24 0
-2 -15 -18 -23 3 0
-2 -15 -18 -23 4 0
-2 -15 -18 -23 14 0
-2 -15 -18 -23 16 0
-2 -15 -18 -23 19 0
-2 -15 -18 -23 20 0
-3 -14 -19 -23 2 0
-3 -14 -19 -23 4 0
-3 -14 -19 -23 15 0
-3 -14 -19 -23 16 0
-3 -14 -19 -23 18 0
-3 -14 -19 -23 20 0
-6 -15 -19 -22 7 0
-6 -15 -19 -22 8 0
-6 -15 -19 -22 14 0
-6 -15 -19 -22 16 0
-6 -15 -19 -22 23 0
-6 -15 -19 -22 24 0
-10 -15 -19 -22 11 0
-10 -15 -19 -22 12 0
-10 -15 -19 -22 18 0
-10 -15 -19 -22 20 0
-10 -15 -19 -22 23 0
-10 -15 -19 -22 24 0
-7 -14 -19 -23 6 0
-7 -14 -19 -23 8 0
-7 -14 -19 -23 15 0
-7 -14 -19 -23 16 0
-7 -14 -19 -23 22 0
-7 -14 -19 -23 24 0
-11 -15 -18 -23 10 0
-11 -15 -18 -23 12 0
-11 -15 -18 -23 19 0
-11 -15 -18 -23 20 0
-11 -15 -18 -23 22 0
-11 -15 -18 -23 24 0
-8 -9 -11 -12 -13 -16 14 0
-5 -7 -8 -12 -17 -20 18 0
-4 -9 -10 -12 -13 -16 14 0
-4 -5 -6 -8 -17 -20 18 0
-1 -3 -4 -12 -21 -24 22 0
-1 -2 -4 -8 -21 -24 22 0
-5 -8 -16 -17 -19 -20 6 0
-9 -12 -13 -15 -16 -20 10 0
-1 -4 -16 -21 -23 -24 2 0
-1 -4 -20 -21 -23 -24 3 0
-9 -12 -13 -15 -16 -24 11 0
-5 -8 -17 -19 -20 -24 7 0
-4 -5 -8 -17 -18 -20 6 0
-4 -9 -12 -13 -14 -16 10 0
-1 -4 -8 -21 -22 -24 2 0
-1 -4 -12 -21 -22 -24 3 0
-8 -9 -12 -13 -14 -16 11 0
-5 -8 -12 -17 -18 -20 7 0
-1 -3 -4 -20 -21 -24 23 0
-1 -2 -4 -16 -21 -24 23 0
-5 -7 -8 -17 -20 -24 19 0
-9 -11 -12 -13 -16 -24 15 0
-5 -6 -8 -16 -17 -20 19 0
-9 -10 -12 -13 -16 -20 15 0
-4 -8 -9 -13 -14 -16 1 0
-4 -8 -9 -13 -14 -16 2 0
-4 -8 -9 -13 -14 -16 3 0
-4 -8 -9 -13 -14 -16 5 0
-4 -8 -9 -13 -14 -16 6 0
-4 -8 -9 -13 -14 -16 7 0
-4 -8 -9 -13 -14 -16 10 0
-4 -8 -9 -13 -14 -16 11 0
-4 -8 -9 -13 -14 -16 12 0
-4 -8 -9 -13 -14 -16 15 0
-4 -5 -12 -17 -18 -20 1 0
-4 -5 -12 -17 -18 -20 2 0
-4 -5 -12 -17 -18 -20 3 0
-4 -5 -12 -17 -18 -20 6 0
-4 -5 -12 -17 -18 -20 7 0
-4 -5 -12 -17 -18 -20 8 0
-4 -5 -12 -17 -18 -20 9 0
-4 -5 -12 -17 -18 -20 10 0
-4 -5 -12 -17 -18 -20 11 0
-4 -5 -12 -17 -18 -20 19 0
-4 -8 -9 -13 -14 -16 1 0
-4 -8 -9 -13 -14 -16 2 0
-4 -8 -9 -13 -14 -16 3 0
-4 -8 -9 -13 -14 -16 5 0
-4 -8 -9 -13 -14 -16 6 0
-4 -8 -9 -13 -14 -16 7 0
-4 -8 -9 -13 -14 -16 10 0
-4 -8 -9 -13 -14 -16 11 0
-4 -8 -9 -13 -14 -16 12 0
-4 -8 -9 -13 -14 -16 15 0
-4 -5 -12 -17 -18 -20 1 0
-4 -5 -12 -17 -18 -20 2 0
-4 -5 -12 -17 -18 -20 3 0
-4 -5 -12 -17 -18 -20 6 0
-4 -5 -12 -17 -18 -20 7 0
-4 -5 -12 -17 -18 -20 8 0
-4 -5 -12 -17 -18 -20 9 0
-4 -5 -12 -17 -18 -20 10 0
-4 -5 -12 -17 -18 -20 11 0
-4 -5 -12 -17 -18 -20 19 0
-1 -8 -12 -21 -22 -24 2 0
-1 -8 -12 -21 -22 -24 3 0
-1 -8 -12 -21 -22 -24 4 0
-1 -8 -12 -21 -22 -24 5 0
-1 -8 -12 -21 -22 -24 6 0
-1 -8 -12 -21 -22 -24 7 0
-1 -8 -12 -21 -22 -24 9 0
-1 -8 -12 -21 -22 -24 10 0
-1 -8 -12 -21 -22 -24 11 0
-1 -8 -12 -21 -22 -24 23 0
-1 -8 -12 -21 -22 -24 2 0
-1 -8 -12 -21 -22 -24 3 0
-1 -8 -12 -21 -22 -24 4 0
-1 -8 -12 -21 -22 -24 5 0
-1 -8 -12 -21 -22 -24 6 0
-1 -8 -12 -21 -22 -24 7 0
-1 -8 -12 -21 -22 -24 9 0
-1 -8 -12 -21 -22 -24 10 0
-1 -8 -12 -21 -22 -24 11 0
-1 -8 -12 -21 -22 -24 23 0
-4 -5 -6 -8 -16 -17 1 0
-4 -5 -6 -8 -16 -17 2 0
-4 -5 -6 -8 -16 -17 3 0
-4 -5 -6 -8 -16 -17 7 0
-4 -5 -6 -8 -16 -17 13 0
-4 -5 -6 -8 -16 -17 14 0
-4 -5 -6 -8 -16 -17 15 0
-4 -5 -6 -8 -16 -17 18 0
-4 -5 -6 -8 -16 -17 19 0
-4 -5 -6 -8 -16 -17 20 0
-4 -9 -10 -12 -13 -20 1 0
-4 -9 -10 -12 -13 -20 2 0
-4 -9 -10 -12 -13 -20 3 0
-4 -9 -10 -12 -13 -20 11 0
-4 -9 -10 -12 -13 -20 14 0
-4 -9 -10 -12 -13 -20 15 0
-4 -9 -10 -12 -13 -20 16 0
-4 -9 -10 -12 -13 -20 17 0
-4 -9 -10 -12 -13 -20 18 0
-4 -9 -10 -12 -13 -20 19 0
-1 -2 -4 -8 -16 -21 3 0
-1 -2 -4 -8 -16 -21 5 0
-1 -2 -4 -8 -16 -21 6 0
-1 -2 -4 -8 -16 -21 7 0
-1 -2 -4 -8 -16 -21 13 0
-1 -2 -4 -8 -16 -21 14 0
-1 -2 -4 -8 -16 -21 15 0
-1 -2 -4 -8 -16 -21 22 0
-1 -2 -4 -8 -16 -21 23 0
-1 -2 -4 -8 -16 -21 24 0
-1 -3 -4 -12 -20 -21 2 0
-1 -3 -4 -12 -20 -21 9 0
-1 -3 -4 -12 -20 -21 10 0
-1 -3 -4 -12 -20 -21 11 0
-1 -3 -4 -12 -20 -21 17 0
-1 -3 -4 -12 -20 -21 18 0
-1 -3 -4 -12 -20 -21 19 0
-1 -3 -4 -12 -20 -21 22 0
-1 -3 -4 -12 -20 -21 23 0
-1 -3 -4 -12 -20 -21 24 0
-8 -9 -11 -12 -13 -24 5 0
-8 -9 -11 -12 -13 -24 6 0
-8 -9 -11 -12 -13 -24 7 0
-8 -9 -11 -12 -13 -24 10 0
-8 -9 -11 -12 -13 -24 14 0
-8 -9 -11 -12 -13 -24 15 0
-8 -9 -11 -12 -13 -24 16 0
-8 -9 -11 -12 -13 -24 21 0
-8 -9 -11 -12 -13 -24 22 0
-8 -9 -11 -12 -13 -24 23 0
-5 -7 -8 -12 -17 -24 6 0
-5 -7 -8 -12 -17 -24 9 0
-5 -7 -8 -12 -17 -24 10 0
-5 -7 -8 -12 -17 -24 11 0
-5 -7 -8 -12 -17 -24 18 0
-5 -7 -8 -12 -17 -24 19 0
-5 -7 -8 -12 -17 -24 20 0
-5 -7 -8 -12 -17 -24 21 0
-5 -7 -8 -12 -17 -24 22 0
-5 -7 -8 -12 -17 -24 23 0
-4 -5 -6 -8 -16 -17 1 0
-4 -5 -6 -8 -16 -17 2 0
-4 -5 -6 -8 -16 -17 3 0
-4 -5 -6 -8 -16 -17 7 0
-4 -5 -6 -8 -16 -17 13 0
-4 -5 -6 -8 -16 -17 14 0
-4 -5 -6 -8 -16 -17 15 0
-4 -5 -6 -8 -16 -17 18 0
-4 -5 -6 -8 -16 -17 19 0
-4 -5 -6 -8 -16 -17 20 0
-4 -9 -10 -12 -13 -20 1 0
-4 -9 -10 -12 -13 -20 2 0
-4 -9 -10 -12 -13 -20 3 0
-4 -9 -10 -12 -13 -20 11 0
-4 -9 -10 -12 -13 -20 14 0
-4 -9 -10 -12 -13 -20 15 0
-4 -9 -10 -12 -13 -20 16 0
-4 -9 -10 -12 -13 -20 17 0
-4 -9 -10 -12 -13 -20 18 0
-4 -9 -10 -12 -13 -20 19 0
-1 -2 -4 -8 -16 -21 3 0
-1 -2 -4 -8 -16 -21 5 0
-1 -2 -4 -8 -16 -21 6 0
-1 -2 -4 -8 -16 -21 7 0
-1 -2 -4 -8 -16 -21 13 0
-1 -2 -4 -8 -16 -21 14 0
-1 -2 -4 -8 -16 -21 15 0
-1 -2 -4 -8 -16 -21 22 0
-1 -2 -4 -8 -16 -21 23 0
-1 -2 -4 -8 -16 -21 24 0
-1 -3 -4 -12 -20 -21 2 0
-1 -3 -4 -12 -20 -21 9 0
-1 -3 -4 -12 -20 -21 10 0
-1 -3 -4 -12 -20 -21 11 0
-1 -3 -4 -12 -20 -21 17 0
-1 -3 -4 -12 -20 -21 18 0
-1 -3 -4 -12 -20 -21 19 0
-1 -3 -4 -12 -20 -21 22 0
-1 -3 -4 -12 -20 -21 23 0
-1 -3 -4 -12 -20 -21 24 0
-8 -9 -11 -12 -13 -24 5 0
-8 -9 -11 -12 -13 -24 6 0
-8 -9 -11 -12 -13 -24 7 0
-8 -9 -11 -12 -13 -24 10 0
-8 -9 -11 -12 -13 -24 14 0
-8 -9 -11 -12 -13 -24 15 0
-8 -9 -11 -12 -13 -24 16 0
-8 -9 -11 -12 -13 -24 21 0
-8 -9 -11 -12 -13 -24 22 0
-8 -9 -11 -12 -13 -24 23 0
-5 -7 -8 -12 -17 -24 6 0
-5 -7 -8 -12 -17 -24 9 0
-5 -7 -8 -12 -17 -24 10 0
-5 -7 -8 -12 -17 -24 11 0
-5 -7 -8 -12 -17 -24 18 0
-5 -7 -8 -12 -17 -24 19 0
-5 -7 -8 -12 -17 -24 20 0
-5 -7 -8 -12 -17 -24 21 0
-5 -7 -8 -12 -17 -24 22 0
-5 -7 -8 -12 -17 -24 23 0
-1 -16 -20 -21 -23 -24 2 0
-1 -16 -20 -21 -23 -24 3 0
-1 -16 -20 -21 -23 -24 4 0
-1 -16 -20 -21 -23 -24 13 0
-1 -16 -20 -21 -23 -24 14 0
-1 -16 -20 -21 -23 -24 15 0
-1 -16 -20 -21 -23 -24 17 0
-1 -16 -20 -21 -23 -24 18 0
-1 -16 -20 -21 -23 -24 19 0
-1 -16 -20 -21 -23 -24 22 0
-1 -16 -20 -21 -23 -24 2 0
-1 -16 -20 -21 -23 -24 3 0
-1 -16 -20 -21 -23 -24 4 0
-1 -16 -20 -21 -23 -24 13 0
-1 -16 -20 -21 -23 -24 14 0
-1 -16 -20 -21 -23 -24 15 0
-1 -16 -20 -21 -23 -24 17 0
-1 -16 -20 -21 -23 -24 18 0
-1 -16 -20 -21 -23 -24 19 0
-1 -16 -20 -21 -23 -24 22 0
-5 -16 -17 -19 -20 -24 6 0
-5 -16 -17 -19 -20 -24 7 0
-5 -16 -17 -19 -20 -24 8 0
-5 -16 -17 -19 -20 -24 13 0
-5 -16 -17 -19 -20 -24 14 0
-5 -16 -17 -19 -20 -24 15 0
-5 -16 -17 -19 -20 -24 18 0
-5 -16 -17 -19 -20 -24 21 0
-5 -16 -17 -19 -20 -24 22 0
-5 -16 -17 -19 -20 -24 23 0
-9 -13 -15 -16 -20 -24 10 0
-9 -13 -15 -16 -20 -24 11 0
-9 -13 -15 -16 -20 -24 12 0
-9 -13 -15 -16 -20 -24 14 0
-9 -13 -15 -16 -20 -24 17 0
-9 -13 -15 -16 -20 -24 18 0
-9 -13 -15 -16 -20 -24 19 0
-9 -13 -15 -16 -20 -24 21 0
-9 -13 -15 -16 -20 -24 22 0
-9 -13 -15 -16 -20 -24 23 0
-5 -16 -17 -19 -20 -24 6 0
-5 -16 -17 -19 -20 -24 7 0
-5 -16 -17 -19 -20 -24 8 0
-5 -16 -17 -19 -20 -24 13 0
-5 -16 -17 -19 -20 -24 14 0
-5 -16 -17 -19 -20 -24 15 0
-5 -16 -17 -19 -20 -24 18 0
-5 -16 -17 -19 -20 -24 21 0
-5 -16 -17 -19 -20 -24 22 0
-5 -16 -17 -19 -20 -24 23 0
-9 -13 -15 -16 -20 -24 10 0
-9 -13 -15 -16 -20 -24 11 0
-9 -13 -15 -16 -20 -24 12 0
-9 -13 -15 -16 -20 -24 14 0
-9 -13 -15 -16 -20 -24 17 0
-9 -13 -15 -16 -20 -24 18 0
-9 -13 -15 -16 -20 -24 19 0
-9 -13 -15 -16 -20 -24 21 0
-9 -13 -15 -16 -20 -24 22 0
-9 -13 -15 -16 -20 -24 23 0
-6 -7 -8 -11 -14 -17 5 0
-6 -7 -8 -11 -14 -17 9 0
-6 -7 -8 -11 -14 -17 10 0
-6 -7 -8 -11 -14 -17 12 0
-6 -7 -8 -11 -14 -17 13 0
-6 -7 -8 -11 -14 -17 15 0
-6 -7 -8 -11 -14 -17 16 0
-6 -7 -8 -11 -14 -17 18 0
-6 -7 -8 -11 -14 -17 19 0
-6 -7 -8 -11 -14 -17 20 0
-7 -10 -11 -12 -13 -18 5 0
-7 -10 -11 -12 -13 -18 6 0
-7 -10 -11 -12 -13 -18 8 0
-7 -10 -11 -12 -13 -18 9 0
-7 -10 -11 -12 -13 -18 14 0
-7 -10 -11 -12 -13 -18 15 0
-7 -10 -11 -12 -13 -18 16 0
-7 -10 -11 -12 -13 -18 17 0
-7 -10 -11 -12 -13 -18 19 0
-7 -10 -11 -12 -13 -18 20 0
-2 -3 -4 -10 -14 -21 1 0
-2 -3 -4 -10 -14 -21 9 0
-2 -3 -4 -10 -14 -21 11 0
-2 -3 -4 -10 -14 -21 12 0
-2 -3 -4 -10 -14 -21 13 0
-2 -3 -4 -10 -14 -21 15 0
-2 -3 -4 -10 -14 -21 16 0
-2 -3 -4 -10 -14 -21 22 0
-2 -3 -4 -10 -14 -21 23 0
-2 -3 -4 -10 -14 -21 24 0
-2 -3 -4 -6 -18 -21 1 0
-2 -3 -4 -6 -18 -21 5 0
-2 -3 -4 -6 -18 -21 7 0
-2 -3 -4 -6 -18 -21 8 0
-2 -3 -4 -6 -18 -21 17 0
-2 -3 -4 -6 -18 -21 19 0
-2 -3 -4 -6 -18 -21 20 0
-2 -3 -4 -6 -18 -21 22 0
-2 -3 -4 -6 -18 -21 23 0
-2 -3 -4 -6 -18 -21 24 0
-3 -10 -11 -12 -13 -22 1 0
-3 -10 -11 -12 -13 -22 2 0
-3 -10 -11 -12 -13 -22 4 0
-3 -10 -11 -12 -13 -22 9 0
-3 -10 -11 -12 -13 -22 14 0
-3 -10 -11 -12 -13 -22 15 0
-3 -10 -11 -12 -13 -22 16 0
-3 -10 -11 -12 -13 -22 21 0
-3 -10 -11 -12 -13 -22 23 0
-3 -10 -11 -12 -13 -22 24 0
-2 -6 -7 -8 -17 -22 1 0
-2 -6 -7 -8 -17 -22 3 0
-2 -6 -7 -8 -17 -22 4 0
-2 -6 -7 -8 -17 -22 5 0
-2 -6 -7 -8 -17 -22 18 0
-2 -6 -7 -8 -17 -22 19 0
-2 -6 -7 -8 -17 -22 20 0
-2 -6 -7 -8 -17 -22 21 0
-2 -6 -7 -8 -17 -22 23 0
-2 -6 -7 -8 -17 -22 24 0
-6 -9 -14 -15 -16 -19 5 0
-6 -9 -14 -15 -16 -19 7 0
-6 -9 -14 -15 -16 -19 8 0
-6 -9 -14 -15 -16 -19 10 0
-6 -9 -14 -15 -16 -19 11 0
-6 -9 -14 -15 -16 -19 12 0
-6 -9 -14 -15 -16 -19 13 0
-6 -9 -14 -15 -16 -19 17 0
-6 -9 -14 -15 -16 -19 18 0
-6 -9 -14 -15 -16 -19 20 0
-5 -10 -15 -18 -19 -20 6 0
-5 -10 -15 -18 -19 -20 7 0
-5 -10 -15 -18 -19 -20 8 0
-5 -10 -15 -18 -19 -20 9 0
-5 -10 -15 -18 -19 -20 11 0
-5 -10 -15 -18 -19 -20 12 0
-5 -10 -15 -18 -19 -20 13 0
-5 -10 -15 -18 -19 -20 14 0
-5 -10 -15 -18 -19 -20 16 0
-5 -10 -15 -18 -19 -20 17 0
-2 -9 -14 -15 -16 -23 1 0
-2 -9 -14 -15 -16 -23 3 0
-2 -9 -14 -15 -16 -23 4 0
-2 -9 -14 -15 -16 -23 10 0
-2 -9 -14 -15 -16 -23 11 0
-2 -9 -14 -15 -16 -23 12 0
-2 -9 -14 -15 -16 -23 13 0
-2 -9 -14 -15 -16 -23 21 0
-2 -9 -14 -15 -16 -23 22 0
-2 -9 -14 -15 -16 -23 24 0
-3 -5 -18 -19 -20 -23 1 0
-3 -5 -18 -19 -20 -23 2 0
-3 -5 -18 -19 -20 -23 4 0
-3 -5 -18 -19 -20 -23 6 0
-3 -5 -18 -19 -20 -23 7 0
-3 -5 -18 -19 -20 -23 8 0
-3 -5 -18 -19 -20 -23 17 0
-3 -5 -18 -19 -20 -23 21 0
-3 -5 -18 -19 -20 -23 22 0
-3 -5 -18 -19 -20 -23 24 0
-1 -11 -15 -22 -23 -24 2 0
-1 -11 -15 -22 -23 -24 3 0
-1 -11 -15 -22 -23 -24 4 0
-1 -11 -15 -22 -23 -24 9 0
-1 -11 -15 -22 -23 -24 10 0
-1 -11 -15 -22 -23 -24 12 0
-1 -11 -15 -22 -23 -24 13 0
-1 -11 -15 -22 -23 -24 14 0
-1 -11 -15 -22 -23 -24 16 0
-1 -11 -15 -22 -23 -24 21 0
-1 -7 -19 -22 -23 -24 2 0
-1 -7 -19 -22 -23 -24 3 0
-1 -7 -19 -22 -23 -24 4 0
-1 -7 -19 -22 -23 -24 5 0
-1 -7 -19 -22 -23 -24 6 0
-1 -7 -19 -22 -23 -24 8 0
-1 -7 -19 -22 -23 -24 17 0
-1 -7 -19 -22 -23 -24 18 0
-1 -7 -19 -22 -23 -24 20 0
-1 -7 -19 -22 -23 -24 21 0
-2 -3 -4 -6 -18 -21 1 0
-2 -3 -4 -6 -18 -21 5 0
-2 -3 -4 -6 -18 -21 7 0
-2 -3 -4 -6 -18 -21 8 0
-2 -3 -4 -6 -18 -21 17 0
-2 -3 -4 -6 -18 -21 19 0
-2 -3 -4 -6 -18 -21 20 0
-2 -3 -4 -6 -18 -21 22 0
-2 -3 -4 -6 -18 -21 23 0
-2 -3 -4 -6 -18 -21 24 0
-2 -3 -4 -10 -14 -21 1 0
-2 -3 -4 -10 -14 -21 9 0
-2 -3 -4 -10 -14 -21 11 0
-2 -3 -4 -10 -14 -21 12 0
-2 -3 -4 -10 -14 -21 13 0
-2 -3 -4 -10 -14 -21 15 0
-2 -3 -4 -10 -14 -21 16 0
-2 -3 -4 -10 -14 -21 22 0
-2 -3 -4 -10 -14 -21 23 0
-2 -3 -4 -10 -14 -21 24 0
-2 -6 -7 -8 -17 -22 1 0
-2 -6 -7 -8 -17 -22 3 0
-2 -6 -7 -8 -17 -22 4 0
-2 -6 -7 -8 -17 -22 5 0
-2 -6 -7 -8 -17 -22 18 0
-2 -6 -7 -8 -17 -22 19 0
-2 -6 -7 -8 -17 -22 20 0
-2 -6 -7 -8 -17 -22 21 0
-2 -6 -7 -8 -17 -22 23 0
-2 -6 -7 -8 -17 -22 24 0
-3 -10 -11 -12 -13 -22 1 0
-3 -10 -11 -12 -13 -22 2 0
-3 -10 -11 -12 -13 -22 4 0
-3 -10 -11 -12 -13 -22 9 0
-3 -10 -11 -12 -13 -22 14 0
-3 -10 -11 -12 -13 -22 15 0
-3 -10 -11 -12 -13 -22 16 0
-3 -10 -11 -12 -13 -22 21 0
-3 -10 -11 -12 -13 -22 23 0
-3 -10 -11 -12 -13 -22 24 0
-6 -7 -8 -11 -14 -17 5 0
-6 -7 -8 -11 -14 -17 9 0
-6 -7 -8 -11 -14 -17 10 0
-6 -7 -8 -11 -14 -17 12 0
-6 -7 -8 -11 -14 -17 13 0
-6 -7 -8 -11 -14 -17 15 0
-6 -7 -8 -11 -14 -17 16 0
-6 -7 -8 -11 -14 -17 18 0
-6 -7 -8 -11 -14 -17 19 0
-6 -7 -8 -11 -14 -17 20 0
-7 -10 -11 -12 -13 -18 5 0
-7 -10 -11 -12 -13 -18 6 0
-7 -10 -11 -12 -13 -18 8 0
-7 -10 -11 -12 -13 -18 9 0
-7 -10 -11 -12 -13 -18 14 0
-7 -10 -11 -12 -13 -18 15 0
-7 -10 -11 -12 -13 -18 16 0
-7 -10 -11 -12 -13 -18 17 0
-7 -10 -11 -12 -13 -18 19 0
-7 -10 -11 -12 -13 -18 20 0
-3 -5 -18 -19 -20 -23 1 0
-3 -5 -18 -19 -20 -23 2 0
-3 -5 -18 -19 -20 -23 4 0
-3 -5 -18 -19 -20 -23 6 0
-3 -5 -18 -19 -20 -23 7 0
-3 -5 -18 -19 -20 -23 8 0
-3 -5 -18 -19 -20 -23 17 0
-3 -5 -18 -19 -20 -23 21 0
-3 -5 -18 -19 -20 -23 22 0
-3 -5 -18 -19 -20 -23 24 0
-2 -9 -14 -15 -16 -23 1 0
-2 -9 -14 -15 -16 -23 3 0
-2 -9 -14 -15 -16 -23 4 0
-2 -9 -14 -15 -16 -23 10 0
-2 -9 -14 -15 -16 -23 11 0
-2 -9 -14 -15 -16 -23 12 0
-2 -9 -14 -15 -16 -23 13 0
-2 -9 -14 -15 -16 -23 21 0
-2 -9 -14 -15 -16 -23 22 0
-2 -9 -14 -15 -16 -23 24 0
-1 -7 -19 -22 -23 -24 2 0
-1 -7 -19 -22 -23 -24 3 0
-1 -7 -19 -22 -23 -24 4 0
-1 -7 -19 -22 -23 -24 5 0
-1 -7 -19 -22 -23 -24 6 0
-1 -7 -19 -22 -23 -24 8 0
-1 -7 -19 -22 -23 -24 17 0
-1 -7 -19 -22 -23 -24 18 0
-1 -7 -19 -22 -23 -24 20 0
-1 -7 -19 -22 -23 -24 21 0
-1 -11 -15 -22 -23 -24 2 0
-1 -11 -15 -22 -23 -24 3 0
-1 -11 -15 -22 -23 -24 4 0
-1 -11 -15 -22 -23 -24 9 0
-1 -11 -15 -22 -23 -24 10 0
-1 -11 -15 -22 -23 -24 12 0
-1 -11 -15 -22 -23 -24 13 0
-1 -11 -15 -22 -23 -24 14 0
-1 -11 -15 -22 -23 -24 16 0
-1 -11 -15 -22 -23 -24 21 0
-6 -9 -14 -15 -16 -19 5 0
-6 -9 -14 -15 -16 -19 7 0
-6 -9 -14 -15 -16 -19 8 0
-6 -9 -14 -15 -16 -19 10 0
-6 -9 -14 -15 -16 -19 11 0
-6 -9 -14 -15 -16 -19 12 0
-6 -9 -14 -15 -16 -19 13 0
-6 -9 -14 -15 -16 -19 17 0
-6 -9 -14 -15 -16 -19 18 0
-6 -9 -14 -15 -16 -19 20 0
-5 -10 -15 -18 -19 -20 6 0
-5 -10 -15 -18 -19 -20 7 0
-5 -10 -15 -18 -19 -20 8 0
-5 -10 -15 -18 -19 -20 9 0
-5 -10 -15 -18 -19 -20 11 0
-5 -10 -15 -18 -19 -20 12 0
-5 -10 -15 -18 -19 -20 13 0
-5 -10 -15 -18 -19 -20 14 0
-5 -10 -15 -18 -19 -20 16 0
-5 -10 -15 -18 -19 -20 17 0
